Cl  K Na 
 1.0000000000000000
     9.7649645375982281    0.0000000000000000    0.0000000000000000
     0.0000000000000000    9.7649645375982281    0.0000000000000000
     0.0000000000000000    0.0000000000000000    9.7649645375982281
 Cl  K   Na 
  14   8   6
Cartesian
 -0.3354009538197297 10.0540977989800329  7.3354898933240369
  1.1256446233896684  8.2054283890075990  0.5541870520750500
  6.3113013277628909  4.9641974633258474  2.8884733306479857
  6.6178299494755652  8.0197438329996054  8.4385334538527506
  1.1771787368240534  1.8658873986858402  4.6933309543027448
  1.5712384711006393  4.8321848648568277 -0.3905845026214801
  4.8129029065745943 -0.1764418665845581  6.0909876475639404
  9.0278845026065024  2.9869944375952926  2.1986525482127006
  7.2789491161726501  7.3890279236468350  5.1983862370519720
  9.4815896672946334  6.7358301485700380  7.4925576335849406
  4.1405042055145875  6.6893674758343256  0.8944336494743392
  7.6491380914013574  5.0387346581608972  9.6244225389641045
  4.6426387706368262  2.8916069029488511  4.8338429877439575
  8.3237881445171151  4.1607157005548290  5.4914069632725058
  4.0958353723231227  6.8268090110930491  4.3628732006664990
  7.5578473576409264  0.9688915357629239  4.5529731466756882
  6.6800070401872169  8.3580240612282299  2.1075816325386780
  4.6677952218883467  3.4789025973153107  0.2950107133105979
  5.3108487851493136  5.2175680039258161  7.1161670110521058
  1.8988744914790998  4.9003574963195584  5.8859373999270481
  2.5075444212184212  4.3252391659643212  2.7196762255232128
  9.4147607818546888  6.1851532876889399  2.8022934937549544
  2.9517060536959550  7.4735280623480316  7.6505365520394326
  3.5768213815047494  9.8481648610501935  3.0365713556873426
  6.5494653879268414  2.1386665830346616  7.6480336521047843
  1.1388229528472158  8.2657296069560253  4.8934705123373368
  4.2585787112109434  0.1286968238482806 -0.1690425630746173
  2.8398433674934189  2.2067920228068791  7.5400103891172412
