Cl  K Na 
 1.0000000000000000
     9.7649645375982281    0.0000000000000000    0.0000000000000000
     0.0000000000000000    9.7649645375982281    0.0000000000000000
     0.0000000000000000    0.0000000000000000    9.7649645375982281
 Cl  K   Na 
  14   8   6
Cartesian
  6.3228846272566450  3.1179855632774829  2.5197969321126839
  6.3125082568423831  4.5516548373547714  5.7056728786773636
  5.6918453081176503  1.8407893049053727  9.2607855509520665
 10.2917952499088283  3.0247552547040035  2.5387840919398230
  5.2796166386000536  1.2793192377191924  5.4253625624975097
  3.5426898387570991  3.5046048931459017  7.3539005812853979
  3.0081101129396548  0.9114444871088223  1.5482042735038188
  6.8703792634701824  8.0306411347579534  5.2779194505599722
  0.8148276696470326  4.8575516557835021  5.6486901367586544
  3.2736155868789822  9.8479791749225516  7.8628783360308026
  0.9438155974099882  2.3202282866298973  8.9470706125278276
  8.1166993241510159  6.7663621969903618  1.5387016567473144
  3.4112418650777689  4.1059320417139755  0.8576634797420538
  3.4434901898716874  3.6856812125848157  4.0649864569366443
  1.4830797907180904  1.5290005560879902  5.5156472179734335
  3.7075742506975180  7.5421109473792614 10.1491424088109845
 10.4585952393919506  8.1406259080585883  6.4523510060767135
  3.2347230584779458  8.7299769820757440  4.2306716846073646
  9.6316376068901572 -0.4591630799193525  3.3312783467834981
  3.9041975239018227  6.7302811434642518  6.7972130267517068
  8.2753640330686888  0.9763898269453771  6.9475125634308643
 10.9486297684608278  5.7407853853043411 -0.9018066911969607
  6.5267890977744498  8.4535414512754059  8.6435259458176574
  6.0418667381099276  5.2105831847824682  9.0738850627610432
  6.0485431420101676  9.4317129930344343  2.2438554290651398
  0.5550359129858766  8.8735556760182135  0.0272470574521446
  5.1298619907542289  6.2556609141587769  3.0135914073195660
 11.3329498823593191  6.3199466018586312  2.6224209964802943
