KPOINTS created by Atomic Simulation Environment
0
Auto
1
0 0 0
