Cl  K Na 
 1.0000000000000000
     9.7649645375982281    0.0000000000000000    0.0000000000000000
     0.0000000000000000    9.7649645375982281    0.0000000000000000
     0.0000000000000000    0.0000000000000000    9.7649645375982281
 Cl  K   Na 
  14   8   6
Cartesian
  6.7660954557640975  2.2190562502993347  1.5718991406186804
  1.5902897526101996  9.9368719104804324  4.9048237736935976
  6.7361035776171150  7.0465766586388439  0.3295081778003283
  8.0775134231394095  0.4146726119463763  4.5371427063944010
  7.9061719401652795  5.1838054495765489  7.4703121246898849
  5.0085894809883662 10.0221274250347676  5.8414538373367444
  5.1854813117953604  5.0583889640194055  2.5045147941777288
  9.4868991017351920  7.8186460459418639  2.4775291241742141
  1.6368167989510740  5.1228923261780928  8.3408856408351060
  2.0717538922951988  8.4263629818940267  7.7599307430104387
  3.7806354032231386  2.1023468218051864  3.2563561216709704
 10.2486062784524350  6.5978070584361390  5.4954006998470648
  8.8834256369348292  4.6864600626612418  0.9190676894327592
  0.3588722154424724  1.8997416745074089  2.3502587040531377
  6.9760871162495679  6.8465782561799013  4.6458348688529085
  5.6094231825222618  9.0925182181915556  2.6165176675185355
  3.3670006175737641  7.1491928212095504  0.7769783954441608
  4.9983657228848095  4.0842388730292614  9.0011424982743815
  2.6560982781686104  1.9386351441193113  7.6365378321588899
 10.0107512879625844  3.2316274218131085  5.5382901765504817
  3.5175362312417913  7.3607623860389593  4.3443828086928331
  4.9740955759503249  6.9533806516335410  7.3208325372771439
  5.0111323247153656  9.8221371746541930  9.1736808378897692
  6.6293180766323516  3.3592723831404552  4.8927149362340598
  1.8067541104752329  4.9138956084297991  2.8625075756644587
  7.4038254452788035  1.9425746957848382  7.7919465659464358
  8.0609142022607330  8.4895953573877918  7.3738347814042431
  3.5658889089806056  4.3928292911868478  5.6845232970605091
